verifications/stream/logs/fix_add.opb
min: -1 x9 +1 x10 +11 x11 -5 x12 -8 x13 -15 x14 -11 x15 +4 x16 -3 x17 +2 x18 -1 x19 +9 x20 -15 x21 +11 x22 +5 x23 +5 x24 +1 x25 ;
+1 x3 >= 1;
+1 x4 >= 1;
+1 x5 >= 1;
+1 x6 >= 1;
+1 x1 >= 1;
-1 x2 +1 x1 -1 x9 >= -1;
+1 x2 -1 x1 -1 x9 >= -1;
-1 x3 -1 x2 +1 x10 >= -1;
+1 x3 +1 x2 +1 x10 >= 1;
-1 x4 -1 x2 +1 x11 >= -1;
+1 x4 +1 x2 +1 x11 >= 1;
-1 x5 +1 x3 -1 x12 >= -1;
+1 x5 -1 x3 -1 x12 >= -1;
-1 x6 +1 x2 -1 x13 >= -1;
+1 x6 -1 x2 -1 x13 >= -1;
-1 x6 +1 x3 -1 x14 >= -1;
+1 x6 -1 x3 -1 x14 >= -1;
-1 x6 +1 x4 -1 x15 >= -1;
+1 x6 -1 x4 -1 x15 >= -1;
-1 x6 -1 x5 +1 x16 >= -1;
+1 x6 +1 x5 +1 x16 >= 1;
-1 x7 +1 x2 -1 x17 >= -1;
+1 x7 -1 x2 -1 x17 >= -1;
-1 x7 -1 x4 +1 x18 >= -1;
+1 x7 +1 x4 +1 x18 >= 1;
-1 x7 +1 x6 -1 x19 >= -1;
+1 x7 -1 x6 -1 x19 >= -1;
-1 x8 -1 x2 +1 x20 >= -1;
+1 x8 +1 x2 +1 x20 >= 1;
-1 x8 +1 x3 -1 x21 >= -1;
+1 x8 -1 x3 -1 x21 >= -1;
-1 x8 -1 x4 +1 x22 >= -1;
+1 x8 +1 x4 +1 x22 >= 1;
-1 x8 -1 x5 +1 x23 >= -1;
+1 x8 +1 x5 +1 x23 >= 1;
-1 x8 -1 x6 +1 x24 >= -1;
+1 x8 +1 x6 +1 x24 >= 1;
-1 x8 -1 x7 +1 x25 >= -1;
+1 x8 +1 x7 +1 x25 >= 1;
