verifications/stream/logs/fix_add.txt
h 3 0
h 4 0
h 5 0
h 6 0
h 1 0
h -2 1 -9 0
h 2 -1 -9 0
1 9 0
h -3 -2 10 0
h 3 2 10 0
1 -10 0
h -4 -2 11 0
h 4 2 11 0
11 -11 0
h -5 3 -12 0
h 5 -3 -12 0
5 12 0
h -6 2 -13 0
h 6 -2 -13 0
8 13 0
h -6 3 -14 0
h 6 -3 -14 0
15 14 0
h -6 4 -15 0
h 6 -4 -15 0
11 15 0
h -6 -5 16 0
h 6 5 16 0
4 -16 0
h -7 2 -17 0
h 7 -2 -17 0
3 17 0
h -7 -4 18 0
h 7 4 18 0
2 -18 0
h -7 6 -19 0
h 7 -6 -19 0
1 19 0
h -8 -2 20 0
h 8 2 20 0
9 -20 0
h -8 3 -21 0
h 8 -3 -21 0
15 21 0
h -8 -4 22 0
h 8 4 22 0
11 -22 0
h -8 -5 23 0
h 8 5 23 0
5 -23 0
h -8 -6 24 0
h 8 6 24 0
5 -24 0
h -8 -7 25 0
h 8 7 25 0
1 -25 0
