verifications/stream/logs/fix_add.sol
# Objective value = -26
x9 1
x10 1
x11 1
x12 1
x13 1
x14 1
x15 1
x16 1
x17 1
x18 1
x19 1
x20 0
x21 0
x22 0
x23 0
x24 0
x25 0
x3 1
x4 1
x5 1
x6 1
x1 1
x2 1
x7 1
x8 0
